Route #1: 0 52 36 30 4 48 0
Route #2: 0 17 50 20 13 26 38 0
Route #3: 0 43 10 59 49 25 40 29 56 0
Route #4: 0 18 5 19 42 3 39 45 53 15 0
Route #5: 0 14 2 12 9 41 1 0
Route #6: 0 35 6 27 8 16 0
Route #7: 0 54 37 46 0
Route #8: 0 7 21 61 60 23 24 31 62 0
Route #9: 0 28 57 32 34 11 47 44 51 0
Route #10: 0 58 22 55 33 0
Cost 1409:
